certificates/rado_a6_c278_N46.cnf
c Rad2 upper bound instance: x1 + 6*x2 - x3 = 278, interval [1,46]
p cnf 46 368
1 3 46 0
-1 -3 -46 0
2 4 46 0
-2 -4 -46 0
3 5 46 0
-3 -5 -46 0
4 6 46 0
-4 -6 -46 0
5 7 46 0
-5 -7 -46 0
6 8 46 0
-6 -8 -46 0
1 9 45 0
-1 -9 -45 0
7 9 46 0
-7 -9 -46 0
2 10 45 0
-2 -10 -45 0
8 10 46 0
-8 -10 -46 0
3 11 45 0
-3 -11 -45 0
9 11 46 0
-9 -11 -46 0
4 12 45 0
-4 -12 -45 0
10 12 46 0
-10 -12 -46 0
5 13 45 0
-5 -13 -45 0
11 13 46 0
-11 -13 -46 0
6 14 45 0
-6 -14 -45 0
12 14 46 0
-12 -14 -46 0
1 15 44 0
-1 -15 -44 0
7 15 45 0
-7 -15 -45 0
13 15 46 0
-13 -15 -46 0
2 16 44 0
-2 -16 -44 0
8 16 45 0
-8 -16 -45 0
14 16 46 0
-14 -16 -46 0
3 17 44 0
-3 -17 -44 0
9 17 45 0
-9 -17 -45 0
15 17 46 0
-15 -17 -46 0
4 18 44 0
-4 -18 -44 0
10 18 45 0
-10 -18 -45 0
16 18 46 0
-16 -18 -46 0
5 19 44 0
-5 -19 -44 0
11 19 45 0
-11 -19 -45 0
17 19 46 0
-17 -19 -46 0
6 20 44 0
-6 -20 -44 0
12 20 45 0
-12 -20 -45 0
18 20 46 0
-18 -20 -46 0
1 21 43 0
-1 -21 -43 0
7 21 44 0
-7 -21 -44 0
13 21 45 0
-13 -21 -45 0
19 21 46 0
-19 -21 -46 0
2 22 43 0
-2 -22 -43 0
8 22 44 0
-8 -22 -44 0
14 22 45 0
-14 -22 -45 0
20 22 46 0
-20 -22 -46 0
3 23 43 0
-3 -23 -43 0
9 23 44 0
-9 -23 -44 0
15 23 45 0
-15 -23 -45 0
21 23 46 0
-21 -23 -46 0
4 24 43 0
-4 -24 -43 0
10 24 44 0
-10 -24 -44 0
16 24 45 0
-16 -24 -45 0
22 24 46 0
-22 -24 -46 0
5 25 43 0
-5 -25 -43 0
11 25 44 0
-11 -25 -44 0
17 25 45 0
-17 -25 -45 0
23 25 46 0
-23 -25 -46 0
6 26 43 0
-6 -26 -43 0
12 26 44 0
-12 -26 -44 0
18 26 45 0
-18 -26 -45 0
24 26 46 0
-24 -26 -46 0
1 27 42 0
-1 -27 -42 0
7 27 43 0
-7 -27 -43 0
13 27 44 0
-13 -27 -44 0
19 27 45 0
-19 -27 -45 0
25 27 46 0
-25 -27 -46 0
2 28 42 0
-2 -28 -42 0
8 28 43 0
-8 -28 -43 0
14 28 44 0
-14 -28 -44 0
20 28 45 0
-20 -28 -45 0
26 28 46 0
-26 -28 -46 0
3 29 42 0
-3 -29 -42 0
9 29 43 0
-9 -29 -43 0
15 29 44 0
-15 -29 -44 0
21 29 45 0
-21 -29 -45 0
27 29 46 0
-27 -29 -46 0
4 30 42 0
-4 -30 -42 0
10 30 43 0
-10 -30 -43 0
16 30 44 0
-16 -30 -44 0
22 30 45 0
-22 -30 -45 0
28 30 46 0
-28 -30 -46 0
5 31 42 0
-5 -31 -42 0
11 31 43 0
-11 -31 -43 0
17 31 44 0
-17 -31 -44 0
23 31 45 0
-23 -31 -45 0
29 31 46 0
-29 -31 -46 0
6 32 42 0
-6 -32 -42 0
12 32 43 0
-12 -32 -43 0
18 32 44 0
-18 -32 -44 0
24 32 45 0
-24 -32 -45 0
30 32 46 0
-30 -32 -46 0
1 33 41 0
-1 -33 -41 0
7 33 42 0
-7 -33 -42 0
13 33 43 0
-13 -33 -43 0
19 33 44 0
-19 -33 -44 0
25 33 45 0
-25 -33 -45 0
31 33 46 0
-31 -33 -46 0
2 34 41 0
-2 -34 -41 0
8 34 42 0
-8 -34 -42 0
14 34 43 0
-14 -34 -43 0
20 34 44 0
-20 -34 -44 0
26 34 45 0
-26 -34 -45 0
32 34 46 0
-32 -34 -46 0
3 35 41 0
-3 -35 -41 0
9 35 42 0
-9 -35 -42 0
15 35 43 0
-15 -35 -43 0
21 35 44 0
-21 -35 -44 0
27 35 45 0
-27 -35 -45 0
33 35 46 0
-33 -35 -46 0
4 36 41 0
-4 -36 -41 0
10 36 42 0
-10 -36 -42 0
16 36 43 0
-16 -36 -43 0
22 36 44 0
-22 -36 -44 0
28 36 45 0
-28 -36 -45 0
34 36 46 0
-34 -36 -46 0
5 37 41 0
-5 -37 -41 0
11 37 42 0
-11 -37 -42 0
17 37 43 0
-17 -37 -43 0
23 37 44 0
-23 -37 -44 0
29 37 45 0
-29 -37 -45 0
35 37 46 0
-35 -37 -46 0
6 38 41 0
-6 -38 -41 0
12 38 42 0
-12 -38 -42 0
18 38 43 0
-18 -38 -43 0
24 38 44 0
-24 -38 -44 0
30 38 45 0
-30 -38 -45 0
36 38 46 0
-36 -38 -46 0
1 39 40 0
-1 -39 -40 0
7 39 41 0
-7 -39 -41 0
13 39 42 0
-13 -39 -42 0
19 39 43 0
-19 -39 -43 0
25 39 44 0
-25 -39 -44 0
31 39 45 0
-31 -39 -45 0
37 39 46 0
-37 -39 -46 0
2 40 0
-2 -40 0
8 40 41 0
-8 -40 -41 0
14 40 42 0
-14 -40 -42 0
20 40 43 0
-20 -40 -43 0
26 40 44 0
-26 -40 -44 0
32 40 45 0
-32 -40 -45 0
38 40 46 0
-38 -40 -46 0
3 40 41 0
-3 -40 -41 0
9 41 0
-9 -41 0
15 41 42 0
-15 -41 -42 0
21 41 43 0
-21 -41 -43 0
27 41 44 0
-27 -41 -44 0
33 41 45 0
-33 -41 -45 0
39 41 46 0
-39 -41 -46 0
4 40 42 0
-4 -40 -42 0
10 41 42 0
-10 -41 -42 0
16 42 0
-16 -42 0
22 42 43 0
-22 -42 -43 0
28 42 44 0
-28 -42 -44 0
34 42 45 0
-34 -42 -45 0
40 42 46 0
-40 -42 -46 0
5 40 43 0
-5 -40 -43 0
11 41 43 0
-11 -41 -43 0
17 42 43 0
-17 -42 -43 0
23 43 0
-23 -43 0
29 43 44 0
-29 -43 -44 0
35 43 45 0
-35 -43 -45 0
41 43 46 0
-41 -43 -46 0
6 40 44 0
-6 -40 -44 0
12 41 44 0
-12 -41 -44 0
18 42 44 0
-18 -42 -44 0
24 43 44 0
-24 -43 -44 0
30 44 0
-30 -44 0
36 44 45 0
-36 -44 -45 0
42 44 46 0
-42 -44 -46 0
1 39 45 0
-1 -39 -45 0
7 40 45 0
-7 -40 -45 0
13 41 45 0
-13 -41 -45 0
19 42 45 0
-19 -42 -45 0
25 43 45 0
-25 -43 -45 0
31 44 45 0
-31 -44 -45 0
37 45 0
-37 -45 0
43 45 46 0
-43 -45 -46 0
2 39 46 0
-2 -39 -46 0
8 40 46 0
-8 -40 -46 0
14 41 46 0
-14 -41 -46 0
20 42 46 0
-20 -42 -46 0
26 43 46 0
-26 -43 -46 0
32 44 46 0
-32 -44 -46 0
38 45 46 0
-38 -45 -46 0
44 46 0
-44 -46 0
