certificates/rado_a6_c278_N46.drat
-46 0
44 0
-30 0
28 0
32 0
-14 0
-42 0
-18 0
12 0
16 0
41 0
40 0
20 0
4 0
-26 0
-43 0
0
